10 965
535 8 512 8 469 7 405 15 290 26
525 7 482 7 394 7 212 9 29 11 822 15 623 21
525 7 446 7 267 7 66 9 891 11 731 18
525 7 446 7 267 7 66 9 891 11 731 18
525 7 442 7 285 7 105 9 7 13
525 7 479 7 358 7 163 9 10 11 816 18
525 7 482 7 394 7 212 9 29 11 822 15 623 21
525 7 482 7 362 7 118 9 855 11 673 18
525 7 479 7 355 7 106 9 927 13
525 7 482 7 394 7 212 9 29 11 822 15 623 21
